p cnf 10 200
-1 0
-2 0
-3 0
4 0
-5 0
6 0
-7 0
8 0
-9 0
10 0
11 0
12 0
-13 0
14 0
15 0
16 0
17 0
18 0
19 0
-20 0
-21 0
22 0
-23 0
-24 0
-25 0
1 2 3 4 5 0
1 2 3 4 30 0
1 2 3 29 5 0
1 2 3 29 30 0
1 2 28 4 5 0
1 2 28 4 30 0
1 2 28 29 5 0
1 2 28 29 30 0
1 27 3 4 5 0
1 27 3 4 30 0
1 27 3 29 5 0
1 27 3 29 30 0
1 27 28 4 5 0
1 27 28 4 30 0
1 27 28 29 5 0
1 27 28 29 30 0
26 2 3 4 5 0
26 2 3 4 30 0
26 2 3 29 5 0
26 2 3 29 30 0
26 2 28 4 5 0
26 2 28 4 30 0
26 2 28 29 5 0
26 2 28 29 30 0
26 27 3 4 5 0
26 27 3 4 30 0
26 27 3 29 5 0
26 27 3 29 30 0
26 27 28 4 5 0
26 27 28 4 30 0
26 27 28 29 5 0
26 27 28 29 30 0
6 7 8 9 10 0
6 7 8 9 30 0
6 7 8 29 10 0
6 7 8 29 30 0
6 7 28 9 10 0
6 7 28 9 30 0
6 7 28 29 10 0
6 7 28 29 30 0
6 27 8 9 10 0
6 27 8 9 30 0
6 27 8 29 10 0
6 27 8 29 30 0
6 27 28 9 10 0
6 27 28 9 30 0
6 27 28 29 10 0
6 27 28 29 30 0
26 7 8 9 10 0
26 7 8 9 30 0
26 7 8 29 10 0
26 7 8 29 30 0
26 7 28 9 10 0
26 7 28 9 30 0
26 7 28 29 10 0
26 7 28 29 30 0
26 27 8 9 10 0
26 27 8 9 30 0
26 27 8 29 10 0
26 27 8 29 30 0
26 27 28 9 10 0
26 27 28 9 30 0
26 27 28 29 10 0
26 27 28 29 30 0
11 12 13 14 15 0
11 12 13 14 30 0
11 12 13 29 15 0
11 12 13 29 30 0
11 12 28 14 15 0
11 12 28 14 30 0
11 12 28 29 15 0
11 12 28 29 30 0
11 27 13 14 15 0
11 27 13 14 30 0
11 27 13 29 15 0
11 27 13 29 30 0
11 27 28 14 15 0
11 27 28 14 30 0
11 27 28 29 15 0
11 27 28 29 30 0
26 12 13 14 15 0
26 12 13 14 30 0
26 12 13 29 15 0
26 12 13 29 30 0
26 12 28 14 15 0
26 12 28 14 30 0
26 12 28 29 15 0
26 12 28 29 30 0
26 27 13 14 15 0
26 27 13 14 30 0
26 27 13 29 15 0
26 27 13 29 30 0
26 27 28 14 15 0
26 27 28 14 30 0
26 27 28 29 15 0
26 27 28 29 30 0
16 17 18 19 20 0
16 17 18 19 30 0
16 17 18 29 20 0
16 17 18 29 30 0
16 17 28 19 20 0
16 17 28 19 30 0
16 17 28 29 20 0
16 17 28 29 30 0
16 27 18 19 20 0
16 27 18 19 30 0
16 27 18 29 20 0
16 27 18 29 30 0
16 27 28 19 20 0
16 27 28 19 30 0
16 27 28 29 20 0
16 27 28 29 30 0
26 17 18 19 20 0
26 17 18 19 30 0
26 17 18 29 20 0
26 17 18 29 30 0
26 17 28 19 20 0
26 17 28 19 30 0
26 17 28 29 20 0
26 17 28 29 30 0
26 27 18 19 20 0
26 27 18 19 30 0
26 27 18 29 20 0
26 27 18 29 30 0
26 27 28 19 20 0
26 27 28 19 30 0
26 27 28 29 20 0
26 27 28 29 30 0
21 22 23 24 25 0
21 22 23 24 30 0
21 22 23 29 25 0
21 22 23 29 30 0
21 22 28 24 25 0
21 22 28 24 30 0
21 22 28 29 25 0
21 22 28 29 30 0
21 27 23 24 25 0
21 27 23 24 30 0
21 27 23 29 25 0
21 27 23 29 30 0
21 27 28 24 25 0
21 27 28 24 30 0
21 27 28 29 25 0
21 27 28 29 30 0
26 22 23 24 25 0
26 22 23 24 30 0
26 22 23 29 25 0
26 22 23 29 30 0
26 22 28 24 25 0
26 22 28 24 30 0
26 22 28 29 25 0
26 22 28 29 30 0
26 27 23 24 25 0
26 27 23 24 30 0
26 27 23 29 25 0
26 27 23 29 30 0
26 27 28 24 25 0
26 27 28 24 30 0
26 27 28 29 25 0
26 27 28 29 30 0
-26 -27 -28 0
-26 -27 -29 0
-26 -27 -30 0
-26 -28 -29 0
-26 -28 -30 0
-26 -29 -30 0
-27 -28 -29 0
-27 -28 -30 0
-27 -29 -30 0
-28 -29 -30 0
26 27 28 29 0
26 27 28 30 0
26 27 29 30 0
26 28 29 30 0
27 28 29 30 0
